2000, 3999997000
4002001, 131
4002002, 576
4002003, 941
4002004, 489
4002005, 295
4002006, 206
4002007, 126
4002008, 217
4002009, 793
4002010, 993
4002011, 1
4002012, 788
4002013, 26
4002014, 995
4002015, 446
4002016, 559
4002017, 59
4002018, 521
4002019, 275
4002020, 695
4002021, 802
4002022, 635
4002023, 316
4002024, 661
4002025, 804
4002026, 745
4002027, 2
4002028, 843
4002029, 44
4002030, 71
4002031, 645
4002032, 253
4002033, 890
4002034, 721
4002035, 521
4002036, 665
4002037, 565
4002038, 31
4002039, 284
4002040, 998
4002041, 985
4002042, 442
4002043, 293
4002044, 104
4002045, 625
4002046, 876
4002047, 358
4002048, 946
4002049, 397
4002050, 716
4002051, 835
4002052, 18
4002053, 388
4002054, 223
4002055, 817
4002056, 816
4002057, 412
4002058, 15
4002059, 911
4002060, 246
4002061, 508
4002062, 152
4002063, 319
4002064, 697
4002065, 752
4002066, 853
4002067, 589
4002068, 310
4002069, 676
4002070, 343
4002071, 206
4002072, 725
4002073, 119
4002074, 670
4002075, 898
4002076, 185
4002077, 418
4002078, 309
4002079, 427
4002080, 550
4002081, 678
4002082, 505
4002083, 123
4002084, 233
4002085, 361
4002086, 890
4002087, 401
4002088, 275
4002089, 113
4002090, 121
4002091, 412
4002092, 726
4002093, 214
4002094, 8
4002095, 582
4002096, 269
4002097, 828
4002098, 861
4002099, 785
4002100, 408
4002101, 326
4002102, 238
4002103, 509
4002104, 781
4002105, 380
4002106, 973
4002107, 928
4002108, 8
4002109, 285
4002110, 805
4002111, 835
4002112, 259
4002113, 429
4002114, 450
4002115, 748
4002116, 886
4002117, 688
4002118, 325
4002119, 110
4002120, 623
4002121, 164
4002122, 334
4002123, 121
4002124, 931
4002125, 283
4002126, 535
4002127, 560
4002128, 507
4002129, 510
4002130, 663
4002131, 886
4002132, 471
4002133, 978
4002134, 36
4002135, 736
4002136, 54
4002137, 766
4002138, 791
4002139, 669
4002140, 307
4002141, 859
4002142, 716
4002143, 640
4002144, 305
4002145, 746
4002146, 230
4002147, 548
4002148, 639
4002149, 297
4002150, 175
4002151, 230
4002152, 933
4002153, 782
4002154, 813
4002155, 439
4002156, 877
4002157, 577
4002158, 214
4002159, 31
4002160, 402
4002161, 478
4002162, 461
4002163, 554
4002164, 923
4002165, 144
4002166, 361
4002167, 614
4002168, 864
4002169, 759
4002170, 212
4002171, 179
4002172, 404
4002173, 938
4002174, 217
4002175, 49
4002176, 689
4002177, 813
4002178, 221
4002179, 805
4002180, 62
4002181, 628
4002182, 935
4002183, 603
4002184, 260
4002185, 686
4002186, 32
4002187, 893
4002188, 692
4002189, 226
4002190, 843
4002191, 210
4002192, 450
4002193, 436
4002194, 653
4002195, 935
4002196, 45
4002197, 521
4002198, 781
4002199, 281
4002200, 916
4002201, 206
4002202, 445
4002203, 840
4002204, 865
4002205, 412
4002206, 207
4002207, 670
4002208, 201
4002209, 799
4002210, 408
4002211, 285
4002212, 434
4002213, 818
4002214, 399
4002215, 300
4002216, 700
4002217, 723
4002218, 238
4002219, 858
4002220, 328
4002221, 997
4002222, 192
4002223, 753
4002224, 907
4002225, 945
4002226, 969
4002227, 44
4002228, 883
4002229, 203
4002230, 713
4002231, 304
4002232, 512
4002233, 755
4002234, 440
4002235, 134
4002236, 452
4002237, 88
4002238, 459
4002239, 375
4002240, 971
4002241, 438
4002242, 317
4002243, 686
4002244, 115
4002245, 721
4002246, 662
4002247, 105
4002248, 357
4002249, 239
4002250, 647
4002251, 192
4002252, 73
4002253, 234
4002254, 668
4002255, 724
4002256, 661
4002257, 683
4002258, 800
4002259, 17
4002260, 375
4002261, 999
4002262, 939
4002263, 28
4002264, 278
4002265, 678
4002266, 191
4002267, 668
4002268, 364
4002269, 438
4002270, 942
4002271, 316
4002272, 902
4002273, 756
4002274, 518
4002275, 151
4002276, 770
4002277, 331
4002278, 100
4002279, 131
4002280, 167
4002281, 409
4002282, 844
4002283, 958
4002284, 736
4002285, 817
4002286, 439
4002287, 771
4002288, 313
4002289, 164
4002290, 506
4002291, 678
4002292, 136
4002293, 358
4002294, 637
4002295, 235
4002296, 788
4002297, 423
4002298, 585
4002299, 826
4002300, 9
4002301, 662
4002302, 209
4002303, 262
4002304, 858
4002305, 231
4002306, 81
4002307, 888
4002308, 557
4002309, 214
4002310, 906
4002311, 360
4002312, 802
4002313, 954
4002314, 91
4002315, 588
4002316, 796
4002317, 570
4002318, 873
4002319, 271
4002320, 629
4002321, 354
4002322, 335
4002323, 779
4002324, 998
4002325, 967
4002326, 774
4002327, 910
4002328, 228
4002329, 966
4002330, 582
4002331, 681
4002332, 667
4002333, 201
4002334, 882
4002335, 843
4002336, 815
4002337, 937
4002338, 200
4002339, 106
4002340, 238
4002341, 220
4002342, 182
4002343, 738
4002344, 263
4002345, 536
4002346, 558
4002347, 139
4002348, 596
4002349, 342
4002350, 242
4002351, 678
4002352, 691
4002353, 383
4002354, 495
4002355, 928
4002356, 977
4002357, 858
4002358, 606
4002359, 78
4002360, 901
4002361, 835
4002362, 430
4002363, 295
4002364, 899
4002365, 733
4002366, 171
4002367, 69
4002368, 333
4002369, 937
4002370, 418
4002371, 267
4002372, 539
4002373, 924
4002374, 954
4002375, 647
4002376, 604
4002377, 300
4002378, 99
4002379, 977
4002380, 378
4002381, 291
4002382, 930
4002383, 442
4002384, 522
4002385, 578
4002386, 195
4002387, 654
4002388, 745
4002389, 719
4002390, 549
4002391, 738
4002392, 599
4002393, 935
4002394, 721
4002395, 981
4002396, 215
4002397, 756
4002398, 883
4002399, 338
4002400, 69
4002401, 895
4002402, 535
4002403, 92
4002404, 86
4002405, 974
4002406, 548
4002407, 121
4002408, 467
4002409, 503
4002410, 68
4002411, 864
4002412, 701
4002413, 499
4002414, 665
4002415, 938
4002416, 466
4002417, 643
4002418, 649
4002419, 267
4002420, 662
4002421, 230
4002422, 555
4002423, 473
4002424, 938
4002425, 449
4002426, 840
4002427, 428
4002428, 425
4002429, 756
4002430, 410
4002431, 132
4002432, 477
4002433, 651
4002434, 663
4002435, 46
4002436, 534
4002437, 658
4002438, 966
4002439, 439
4002440, 459
4002441, 816
4002442, 864
4002443, 702
4002444, 598
4002445, 372
4002446, 608
4002447, 150
4002448, 939
4002449, 283
4002450, 947
4002451, 697
4002452, 73
4002453, 903
4002454, 456
4002455, 325
4002456, 663
4002457, 840
4002458, 137
4002459, 611
4002460, 832
4002461, 23
4002462, 328
4002463, 258
4002464, 559
4002465, 245
4002466, 546
4002467, 104
4002468, 83
4002469, 16
4002470, 847
4002471, 921
4002472, 675
4002473, 190
4002474, 919
4002475, 613
4002476, 115
4002477, 432
4002478, 294
4002479, 134
4002480, 981
4002481, 496
4002482, 472
4002483, 175
4002484, 920
4002485, 594
4002486, 869
4002487, 517
4002488, 508
4002489, 230
4002490, 558
4002491, 617
4002492, 939
4002493, 588
4002494, 445
4002495, 308
4002496, 978
4002497, 486
4002498, 793
4002499, 418
4002500, 437
4002501, 993
4002502, 15
4002503, 647
4002504, 205
4002505, 931
4002506, 425
4002507, 748
4002508, 701
4002509, 542
4002510, 10
4002511, 226
4002512, 480
4002513, 675
4002514, 296
4002515, 597
4002516, 165
4002517, 112
4002518, 712
4002519, 506
4002520, 867
4002521, 218
4002522, 933
4002523, 328
4002524, 940
4002525, 915
4002526, 577
4002527, 83
4002528, 981
4002529, 36
4002530, 778
4002531, 668
4002532, 84
4002533, 371
4002534, 510
4002535, 369
4002536, 769
4002537, 438
4002538, 494
4002539, 187
4002540, 277
4002541, 870
4002542, 862
4002543, 922
4002544, 309
4002545, 485
4002546, 131
4002547, 35
4002548, 871
4002549, 255
4002550, 179
4002551, 530
4002552, 827
4002553, 436
4002554, 488
4002555, 63
4002556, 594
4002557, 612
4002558, 181
4002559, 573
4002560, 346
4002561, 105
4002562, 647
4002563, 438
4002564, 137
4002565, 400
4002566, 420
4002567, 872
4002568, 749
4002569, 752
4002570, 359
4002571, 690
4002572, 329
4002573, 648
4002574, 617
4002575, 375
4002576, 962
4002577, 725
4002578, 953
4002579, 921
4002580, 150
4002581, 601
4002582, 893
4002583, 782
4002584, 827
4002585, 605
4002586, 14
4002587, 735
4002588, 134
4002589, 407
4002590, 248
4002591, 211
4002592, 881
4002593, 524
4002594, 38
4002595, 208
4002596, 786
4002597, 551
4002598, 738
4002599, 242
4002600, 66
4002601, 119
4002602, 410
4002603, 305
4002604, 923
4002605, 901
4002606, 4
4002607, 983
4002608, 873
4002609, 979
4002610, 962
4002611, 87
4002612, 778
4002613, 365
4002614, 646
4002615, 895
4002616, 413
4002617, 91
4002618, 143
4002619, 374
4002620, 22
4002621, 573
4002622, 57
4002623, 678
4002624, 784
4002625, 797
4002626, 673
4002627, 90
4002628, 673
4002629, 24
4002630, 902
4002631, 761
4002632, 273
4002633, 772
4002634, 521
4002635, 353
4002636, 266
4002637, 139
4002638, 325
4002639, 828
4002640, 929
4002641, 471
4002642, 791
4002643, 422
4002644, 963
4002645, 715
4002646, 326
4002647, 524
4002648, 360
4002649, 311
4002650, 291
4002651, 757
4002652, 683
4002653, 428
4002654, 602
4002655, 325
4002656, 976
4002657, 60
4002658, 791
4002659, 349
4002660, 756
4002661, 627
4002662, 242
4002663, 755
4002664, 248
4002665, 616
4002666, 555
4002667, 208
4002668, 894
4002669, 804
4002670, 933
4002671, 677
4002672, 554
4002673, 833
4002674, 46
4002675, 84
4002676, 729
4002677, 755
4002678, 645
4002679, 68
4002680, 13
4002681, 410
4002682, 923
4002683, 461
4002684, 790
4002685, 294
4002686, 274
4002687, 103
4002688, 338
4002689, 953
4002690, 320
4002691, 71
4002692, 213
4002693, 808
4002694, 748
4002695, 258
4002696, 993
4002697, 122
4002698, 976
4002699, 56
4002700, 63
4002701, 542
4002702, 77
4002703, 593
4002704, 164
4002705, 321
4002706, 529
4002707, 635
4002708, 565
4002709, 717
4002710, 428
4002711, 673
4002712, 234
4002713, 315
4002714, 909
4002715, 661
4002716, 406
4002717, 170
4002718, 649
4002719, 926
4002720, 564
4002721, 756
4002722, 141
4002723, 106
4002724, 835
4002725, 7
4002726, 934
4002727, 277
4002728, 923
4002729, 250
4002730, 424
4002731, 256
4002732, 758
4002733, 771
4002734, 139
4002735, 882
4002736, 959
4002737, 927
4002738, 7
4002739, 482
4002740, 37
4002741, 66
4002742, 217
4002743, 826
4002744, 160
4002745, 874
4002746, 563
4002747, 604
4002748, 211
4002749, 159
4002750, 999
4002751, 10
4002752, 176
4002753, 790
4002754, 372
4002755, 557
4002756, 750
4002757, 921
4002758, 727
4002759, 148
4002760, 542
4002761, 167
4002762, 147
4002763, 215
4002764, 905
4002765, 186
4002766, 313
4002767, 408
4002768, 259
4002769, 364
4002770, 664
4002771, 832
4002772, 507
4002773, 568
4002774, 94
4002775, 592
4002776, 88
4002777, 567
4002778, 988
4002779, 996
4002780, 117
4002781, 975
4002782, 717
4002783, 353
4002784, 197
4002785, 317
4002786, 222
4002787, 600
4002788, 351
4002789, 916
4002790, 912
4002791, 520
4002792, 674
4002793, 52
4002794, 809
4002795, 583
4002796, 914
4002797, 91
4002798, 422
4002799, 417
4002800, 881
4002801, 942
4002802, 644
4002803, 207
4002804, 214
4002805, 521
4002806, 401
4002807, 921
4002808, 345
4002809, 762
4002810, 119
4002811, 941
4002812, 316
4002813, 890
4002814, 241
4002815, 428
4002816, 395
4002817, 179
4002818, 988
4002819, 747
4002820, 780
4002821, 882
4002822, 255
4002823, 471
4002824, 959
4002825, 166
4002826, 98
4002827, 352
4002828, 711
4002829, 31
4002830, 306
4002831, 686
4002832, 479
4002833, 847
4002834, 971
4002835, 975
4002836, 982
4002837, 996
4002838, 388
4002839, 766
4002840, 651
4002841, 475
4002842, 662
4002843, 501
4002844, 16
4002845, 414
4002846, 253
4002847, 316
4002848, 82
4002849, 167
4002850, 189
4002851, 246
4002852, 391
4002853, 114
4002854, 253
4002855, 843
4002856, 798
4002857, 246
4002858, 247
4002859, 408
4002860, 810
4002861, 164
4002862, 581
4002863, 872
4002864, 215
4002865, 430
4002866, 325
4002867, 742
4002868, 723
4002869, 297
4002870, 518
4002871, 624
4002872, 869
4002873, 226
4002874, 656
4002875, 821
4002876, 665
4002877, 668
4002878, 592
4002879, 327
4002880, 530
4002881, 129
4002882, 41
4002883, 466
4002884, 758
4002885, 988
4002886, 251
4002887, 714
4002888, 725
4002889, 516
4002890, 279
4002891, 632
4002892, 466
4002893, 795
4002894, 848
4002895, 125
4002896, 920
4002897, 363
4002898, 435
4002899, 309
4002900, 557
4002901, 975
4002902, 527
4002903, 62
4002904, 842
4002905, 88
4002906, 126
4002907, 805
4002908, 328
4002909, 349
4002910, 161
4002911, 263
4002912, 651
4002913, 873
4002914, 8
4002915, 765
4002916, 907
4002917, 728
4002918, 951
4002919, 910
4002920, 646
4002921, 377
4002922, 945
4002923, 217
4002924, 567
4002925, 389
4002926, 513
4002927, 623
4002928, 530
4002929, 998
4002930, 27
4002931, 589
4002932, 604
4002933, 465
4002934, 967
4002935, 735
4002936, 719
4002937, 716
4002938, 286
4002939, 414
4002940, 211
4002941, 567
4002942, 674
4002943, 859
4002944, 182
4002945, 447
4002946, 858
4002947, 465
4002948, 613
4002949, 494
4002950, 715
4002951, 414
4002952, 216
4002953, 356
4002954, 503
4002955, 881
4002956, 321
4002957, 977
4002958, 938
4002959, 357
4002960, 429
4002961, 159
4002962, 343
4002963, 29
4002964, 225
4002965, 212
4002966, 679
4002967, 261
4002968, 453
4002969, 165
4002970, 961
4002971, 927
4002972, 332
4002973, 180
4002974, 139
4002975, 923
4002976, 834
4002977, 571
4002978, 39
4002979, 780
4002980, 988
4002981, 382
4002982, 302
4002983, 586
4002984, 955
4002985, 325
4002986, 176
4002987, 778
4002988, 24
4002989, 886
4002990, 81
4002991, 783
4002992, 817
4002993, 974
4002994, 318
4002995, 764
4002996, 634
4002997, 249
4002998, 565
4002999, 535
4003000, 773
4003001, 453
4003002, 912
4003003, 304
4003004, 514
4003005, 323
4003006, 370
4003007, 903
4003008, 414
4003009, 333
4003010, 559
4003011, 728
4003012, 16
4003013, 337
4003014, 880
4003015, 810
4003016, 215
4003017, 571
4003018, 52
4003019, 475
4003020, 165
4003021, 734
4003022, 824
4003023, 493
4003024, 414
4003025, 84
4003026, 272
4003027, 164
4003028, 321
4003029, 153
4003030, 891
4003031, 486
4003032, 845
4003033, 899
4003034, 186
4003035, 977
4003036, 821
4003037, 804
4003038, 64
4003039, 607
4003040, 452
4003041, 502
4003042, 835
4003043, 124
4003044, 17
4003045, 269
4003046, 649
4003047, 238
4003048, 652
4003049, 193
4003050, 372
4003051, 740
4003052, 718
4003053, 976
4003054, 30
4003055, 744
4003056, 765
4003057, 352
4003058, 805
4003059, 452
4003060, 485
4003061, 322
4003062, 879
4003063, 680
4003064, 671
4003065, 863
4003066, 863
4003067, 90
4003068, 549
4003069, 463
4003070, 318
4003071, 483
4003072, 435
4003073, 45
4003074, 449
4003075, 368
4003076, 544
4003077, 204
4003078, 433
4003079, 503
4003080, 482
4003081, 340
4003082, 302
4003083, 997
4003084, 133
4003085, 317
4003086, 747
4003087, 486
4003088, 60
4003089, 897
4003090, 773
4003091, 541
4003092, 38
4003093, 878
4003094, 539
4003095, 382
4003096, 274
4003097, 506
4003098, 287
4003099, 59
4003100, 18
4003101, 149
4003102, 690
4003103, 868
4003104, 907
4003105, 673
4003106, 123
4003107, 29
4003108, 187
4003109, 573
4003110, 369
4003111, 691
4003112, 721
4003113, 733
4003114, 404
4003115, 286
4003116, 41
4003117, 899
4003118, 151
4003119, 185
4003120, 621
4003121, 41
4003122, 712
4003123, 661
4003124, 700
4003125, 116
4003126, 974
4003127, 505
4003128, 974
4003129, 402
4003130, 282
4003131, 396
4003132, 37
4003133, 492
4003134, 494
4003135, 552
4003136, 997
4003137, 428
4003138, 352
4003139, 633
4003140, 188
4003141, 776
4003142, 23
4003143, 940
4003144, 618
4003145, 493
4003146, 468
4003147, 192
4003148, 826
4003149, 131
4003150, 866
4003151, 23
4003152, 895
4003153, 455
4003154, 175
4003155, 781
4003156, 991
4003157, 820
4003158, 256
4003159, 80
4003160, 51
4003161, 185
4003162, 912
4003163, 630
4003164, 332
4003165, 5
4003166, 681
4003167, 393
4003168, 575
4003169, 397
4003170, 496
4003171, 837
4003172, 769
4003173, 709
4003174, 261
4003175, 824
4003176, 420
4003177, 770
4003178, 976
4003179, 329
4003180, 456
4003181, 350
4003182, 789
4003183, 730
4003184, 57
4003185, 523
4003186, 736
4003187, 766
4003188, 447
4003189, 654
4003190, 393
4003191, 682
4003192, 433
4003193, 925
4003194, 521
4003195, 415
4003196, 785
4003197, 497
4003198, 11
4003199, 758
4003200, 314
4003201, 941
4003202, 947
4003203, 450
4003204, 572
4003205, 92
4003206, 186
4003207, 481
4003208, 926
4003209, 350
4003210, 647
4003211, 155
4003212, 523
4003213, 227
4003214, 766
4003215, 129
4003216, 598
4003217, 133
4003218, 157
4003219, 206
4003220, 381
4003221, 890
4003222, 434
4003223, 489
4003224, 352
4003225, 656
4003226, 262
4003227, 985
4003228, 330
4003229, 991
4003230, 652
4003231, 663
4003232, 79
4003233, 66
4003234, 97
4003235, 959
4003236, 220
4003237, 933
4003238, 533
4003239, 878
4003240, 786
4003241, 624
4003242, 369
4003243, 221
4003244, 307
4003245, 202
4003246, 767
4003247, 788
4003248, 331
4003249, 806
4003250, 917
4003251, 463
4003252, 735
4003253, 681
4003254, 905
4003255, 116
4003256, 97
4003257, 873
4003258, 421
4003259, 915
4003260, 73
4003261, 799
4003262, 44
4003263, 636
4003264, 637
4003265, 533
4003266, 219
4003267, 788
4003268, 169
4003269, 977
4003270, 89
4003271, 999
4003272, 575
4003273, 496
4003274, 94
4003275, 103
4003276, 992
4003277, 419
4003278, 679
4003279, 875
4003280, 569
4003281, 308
4003282, 496
4003283, 728
4003284, 207
4003285, 961
4003286, 448
4003287, 907
4003288, 842
4003289, 584
4003290, 72
4003291, 621
4003292, 605
4003293, 785
4003294, 859
4003295, 141
4003296, 452
4003297, 519
4003298, 719
4003299, 57
4003300, 100
4003301, 934
4003302, 899
4003303, 701
4003304, 213
4003305, 942
4003306, 70
4003307, 593
4003308, 443
4003309, 630
4003310, 190
4003311, 558
4003312, 552
4003313, 961
4003314, 438
4003315, 481
4003316, 332
4003317, 788
4003318, 133
4003319, 895
4003320, 933
4003321, 341
4003322, 814
4003323, 487
4003324, 54
4003325, 909
4003326, 986
4003327, 211
4003328, 52
4003329, 726
4003330, 439
4003331, 550
4003332, 755
4003333, 870
4003334, 572
4003335, 422
4003336, 869
4003337, 850
4003338, 26
4003339, 155
4003340, 59
4003341, 11
4003342, 932
4003343, 222
4003344, 793
4003345, 76
4003346, 455
4003347, 970
4003348, 782
4003349, 232
4003350, 810
4003351, 966
4003352, 481
4003353, 56
4003354, 7
4003355, 185
4003356, 876
4003357, 907
4003358, 832
4003359, 44
4003360, 701
4003361, 580
4003362, 434
4003363, 59
4003364, 640
4003365, 200
4003366, 908
4003367, 403
4003368, 253
4003369, 828
4003370, 520
4003371, 125
4003372, 671
4003373, 890
4003374, 73
4003375, 985
4003376, 91
4003377, 492
4003378, 963
4003379, 364
4003380, 277
4003381, 783
4003382, 6
4003383, 946
4003384, 934
4003385, 562
4003386, 395
4003387, 795
4003388, 672
4003389, 68
4003390, 372
4003391, 58
4003392, 351
4003393, 328
4003394, 504
4003395, 176
4003396, 89
4003397, 956
4003398, 132
4003399, 389
4003400, 351
4003401, 149
4003402, 602
4003403, 751
4003404, 817
4003405, 332
4003406, 637
4003407, 969
4003408, 997
4003409, 435
4003410, 771
4003411, 997
4003412, 649
4003413, 768
4003414, 449
4003415, 937
4003416, 388
4003417, 305
4003418, 50
4003419, 430
4003420, 912
4003421, 86
4003422, 872
4003423, 123
4003424, 322
4003425, 834
4003426, 689
4003427, 110
4003428, 848
4003429, 850
4003430, 642
4003431, 611
4003432, 185
4003433, 915
4003434, 95
4003435, 330
4003436, 624
4003437, 799
4003438, 33
4003439, 61
4003440, 953
4003441, 224
4003442, 29
4003443, 943
4003444, 690
4003445, 579
4003446, 739
4003447, 933
4003448, 387
4003449, 327
4003450, 876
4003451, 288
4003452, 878
4003453, 667
4003454, 275
4003455, 89
4003456, 247
4003457, 322
4003458, 29
4003459, 651
4003460, 612
4003461, 530
4003462, 16
4003463, 261
4003464, 77
4003465, 776
4003466, 967
4003467, 549
4003468, 797
4003469, 805
4003470, 379
4003471, 469
4003472, 926
4003473, 364
4003474, 395
4003475, 136
4003476, 689
4003477, 569
4003478, 749
4003479, 629
4003480, 411
4003481, 186
4003482, 138
4003483, 107
4003484, 801
4003485, 794
4003486, 637
4003487, 83
4003488, 516
4003489, 993
4003490, 236
4003491, 817
4003492, 429
4003493, 708
4003494, 397
4003495, 411
4003496, 234
4003497, 435
4003498, 202
4003499, 911
4003500, 30
4003501, 453
4003502, 677
4003503, 369
4003504, 133
4003505, 669
4003506, 972
4003507, 122
4003508, 44
4003509, 856
4003510, 173
4003511, 561
4003512, 741
4003513, 116
4003514, 322
4003515, 38
4003516, 88
4003517, 322
4003518, 46
4003519, 969
4003520, 291
4003521, 237
4003522, 630
4003523, 47
4003524, 67
4003525, 537
4003526, 209
4003527, 605
4003528, 128
4003529, 428
4003530, 936
4003531, 314
4003532, 172
4003533, 671
4003534, 902
4003535, 817
4003536, 796
4003537, 588
4003538, 832
4003539, 60
4003540, 389
4003541, 994
4003542, 997
4003543, 393
4003544, 935
4003545, 12
4003546, 902
4003547, 625
4003548, 645
4003549, 965
4003550, 583
4003551, 771
4003552, 643
4003553, 432
4003554, 932
4003555, 261
4003556, 646
4003557, 727
4003558, 428
4003559, 307
4003560, 375
4003561, 107
4003562, 913
4003563, 421
4003564, 816
4003565, 763
4003566, 646
4003567, 389
4003568, 284
4003569, 802
4003570, 431
4003571, 238
4003572, 675
4003573, 301
4003574, 219
4003575, 230
4003576, 763
4003577, 522
4003578, 781
4003579, 452
4003580, 807
4003581, 59
4003582, 654
4003583, 10
4003584, 628
4003585, 976
4003586, 724
4003587, 235
4003588, 719
4003589, 288
4003590, 118
4003591, 261
4003592, 471
4003593, 1
4003594, 38
4003595, 288
4003596, 280
4003597, 225
4003598, 149
4003599, 509
4003600, 158
4003601, 70
4003602, 473
4003603, 904
4003604, 62
4003605, 299
4003606, 609
4003607, 374
4003608, 800
4003609, 215
4003610, 711
4003611, 647
4003612, 599
4003613, 482
4003614, 893
4003615, 188
4003616, 550
4003617, 263
4003618, 72
4003619, 537
4003620, 836
4003621, 875
4003622, 936
4003623, 172
4003624, 257
4003625, 211
4003626, 709
4003627, 452
4003628, 382
4003629, 473
4003630, 299
4003631, 858
4003632, 481
4003633, 600
4003634, 982
4003635, 10
4003636, 590
4003637, 627
4003638, 142
4003639, 875
4003640, 702
4003641, 81
4003642, 732
4003643, 114
4003644, 435
4003645, 83
4003646, 315
4003647, 67
4003648, 265
4003649, 540
4003650, 159
4003651, 376
4003652, 807
4003653, 647
4003654, 24
4003655, 239
4003656, 475
4003657, 661
4003658, 200
4003659, 431
4003660, 889
4003661, 484
4003662, 304
4003663, 339
4003664, 876
4003665, 424
4003666, 47
4003667, 813
4003668, 595
4003669, 301
4003670, 282
4003671, 755
4003672, 813
4003673, 234
4003674, 4
4003675, 750
4003676, 612
4003677, 591
4003678, 983
4003679, 678
4003680, 974
4003681, 111
4003682, 729
4003683, 62
4003684, 326
4003685, 151
4003686, 456
4003687, 901
4003688, 359
4003689, 660
4003690, 165
4003691, 643
4003692, 761
4003693, 696
4003694, 757
4003695, 255
4003696, 481
4003697, 350
4003698, 474
4003699, 791
4003700, 93
4003701, 753
4003702, 301
4003703, 32
4003704, 613
4003705, 992
4003706, 424
4003707, 849
4003708, 483
4003709, 508
4003710, 995
4003711, 956
4003712, 939
4003713, 912
4003714, 902
4003715, 981
4003716, 819
4003717, 696
4003718, 655
4003719, 312
4003720, 772
4003721, 626
4003722, 142
4003723, 374
4003724, 598
4003725, 71
4003726, 480
4003727, 752
4003728, 527
4003729, 50
4003730, 249
4003731, 834
4003732, 781
4003733, 263
4003734, 328
4003735, 473
4003736, 262
4003737, 941
4003738, 982
4003739, 613
4003740, 711
4003741, 740
4003742, 726
4003743, 343
4003744, 162
4003745, 943
4003746, 790
4003747, 228
4003748, 541
4003749, 715
4003750, 549
4003751, 903
4003752, 210
4003753, 830
4003754, 290
4003755, 930
4003756, 833
4003757, 280
4003758, 531
4003759, 517
4003760, 598
4003761, 244
4003762, 419
4003763, 869
4003764, 241
4003765, 175
4003766, 193
4003767, 734
4003768, 761
4003769, 952
4003770, 208
4003771, 913
4003772, 384
4003773, 478
4003774, 641
4003775, 590
4003776, 625
4003777, 21
4003778, 786
4003779, 106
4003780, 948
4003781, 968
4003782, 634
4003783, 682
4003784, 177
4003785, 936
4003786, 362
4003787, 374
4003788, 816
4003789, 235
4003790, 405
4003791, 399
4003792, 615
4003793, 909
4003794, 432
4003795, 632
4003796, 771
4003797, 562
4003798, 306
4003799, 55
4003800, 781
4003801, 361
4003802, 348
4003803, 381
4003804, 446
4003805, 946
4003806, 602
4003807, 186
4003808, 34
4003809, 88
4003810, 352
4003811, 945
4003812, 273
4003813, 720
4003814, 838
4003815, 218
4003816, 601
4003817, 280
4003818, 916
4003819, 202
4003820, 485
4003821, 992
4003822, 325
4003823, 284
4003824, 152
4003825, 691
4003826, 736
4003827, 419
4003828, 410
4003829, 503
4003830, 82
4003831, 461
4003832, 241
4003833, 872
4003834, 636
4003835, 649
4003836, 169
4003837, 704
4003838, 619
4003839, 337
4003840, 700
4003841, 682
4003842, 490
4003843, 712
4003844, 714
4003845, 826
4003846, 169
4003847, 221
4003848, 146
4003849, 582
4003850, 873
4003851, 558
4003852, 918
4003853, 975
4003854, 517
4003855, 485
4003856, 195
4003857, 944
4003858, 699
4003859, 382
4003860, 294
4003861, 277
4003862, 176
4003863, 630
4003864, 615
4003865, 205
4003866, 999
4003867, 613
4003868, 169
4003869, 977
4003870, 978
4003871, 868
4003872, 47
4003873, 474
4003874, 55
4003875, 656
4003876, 193
4003877, 381
4003878, 699
4003879, 652
4003880, 748
4003881, 994
4003882, 90
4003883, 842
4003884, 533
4003885, 944
4003886, 21
4003887, 851
4003888, 742
4003889, 907
4003890, 385
4003891, 105
4003892, 807
4003893, 174
4003894, 798
4003895, 388
4003896, 438
4003897, 769
4003898, 93
4003899, 441
4003900, 814
4003901, 131
4003902, 409
4003903, 324
4003904, 268
4003905, 264
4003906, 990
4003907, 855
4003908, 68
4003909, 283
4003910, 389
4003911, 776
4003912, 696
4003913, 989
4003914, 549
4003915, 287
4003916, 113
4003917, 284
4003918, 195
4003919, 620
4003920, 979
4003921, 268
4003922, 891
4003923, 373
4003924, 517
4003925, 857
4003926, 171
4003927, 229
4003928, 382
4003929, 242
4003930, 302
4003931, 126
4003932, 545
4003933, 775
4003934, 503
4003935, 504
4003936, 57
4003937, 292
4003938, 825
4003939, 927
4003940, 365
4003941, 755
4003942, 950
4003943, 144
4003944, 805
4003945, 341
4003946, 60
4003947, 443
4003948, 234
4003949, 666
4003950, 8
4003951, 418
4003952, 113
4003953, 227
4003954, 55
4003955, 328
4003956, 40
4003957, 942
4003958, 672
4003959, 395
4003960, 591
4003961, 74
4003962, 187
4003963, 962
4003964, 920
4003965, 118
4003966, 940
4003967, 632
4003968, 503
4003969, 166
4003970, 784
4003971, 750
4003972, 315
4003973, 86
4003974, 85
4003975, 420
4003976, 914
4003977, 732
4003978, 862
4003979, 992
4003980, 656
4003981, 401
4003982, 957
4003983, 524
4003984, 608
4003985, 176
4003986, 919
4003987, 660
4003988, 913
4003989, 949
4003990, 3
4003991, 629
4003992, 986
4003993, 832
4003994, 602
4003995, 463
4003996, 709
4003997, 887
4003998, 792
4003999, 716
4004000, 183
